n_res = 7;
rcap = [25, 27, 25, 20, 21, 92, 88];
rtype = [1, 1, 1, 1, 1, 2, 2];
n_tasks = 16;
modes = [ {1, 2, 3}, {4, 5, 6}, {7, 8, 9}, {10, 11, 12}, {13, 14, 15}, {16, 17, 18}, {19, 20, 21}, {22, 23, 24}, {25, 26, 27}, {28, 29, 30}, {31, 32, 33}, {34, 35, 36}, {37, 38, 39}, {40, 41, 42}, {43, 44, 45}, {46, 47, 48} ];
succ = [ {4, 5, 6}, {8, 14}, {9, 12, 15}, {9, 11}, {8, 12, 15}, {7, 8, 13}, {10, 14, 15}, {9}, {10}, {16}, {13, 16}, {13, 16}, {14}, {}, {}, {} ];
n_opt = 48;
dur = [5, 6, 7, 2, 4, 4, 1, 4, 8, 2, 5, 6, 5, 8, 8, 2, 6, 9, 1, 6, 7, 2, 7, 10, 5, 7, 8, 4, 5, 6, 2, 5, 9, 3, 6, 6, 1, 2, 5, 2, 7, 8, 1, 4, 7, 7, 8, 10];
rreq = [| 10, 10, 10,  5,  5,  5,  4,  2,  2,  6,  6,  6,  6,  4,  5,  6,  4,  4,  7,  4,  3,  7,  6,  3,  2,  1,  1, 10,  9,  7,  5,  5,  4, 10,  6,  7,  7,  3,  1,  9,  7,  5,  8,  6,  3,  8,  8,  8
        |  3,  3,  2,  6,  5,  6, 10,  6,  3,  5,  5,  5,  8,  6,  3,  5,  5,  4, 10,  9,  9,  7,  6,  5,  9,  9,  8,  5,  3,  2,  9,  8,  6,  8,  8,  8,  5,  5,  4,  5,  5,  5,  5,  4,  4,  5,  5,  5
        |  4,  4,  3,  3,  3,  3,  3,  2,  1,  9,  8,  8,  7,  6,  4,  7,  5,  3,  9,  5,  5,  8,  7,  5,  4,  4,  3,  2,  2,  2,  8,  8,  7,  9,  9,  9,  7,  6,  6,  4,  3,  2,  8,  6,  5,  6,  6,  6
        |  2,  2,  1,  3,  2,  3,  8,  6,  4,  6,  5,  4,  5,  1,  1,  9,  9,  9,  5,  5,  4,  4,  3,  3,  8,  6,  2,  8,  7,  6, 10,  9,  8,  6,  3,  6,  7,  5,  3, 10,  9,  8,  7,  6,  5,  1,  1,  1
        |  4,  4,  4,  9,  8,  9,  7,  6,  6,  7,  5,  4,  7,  7,  6,  4,  3,  3,  6,  5,  4,  5,  5,  3,  5,  4,  4,  4,  3,  3,  8,  7,  7,  4,  1,  1,  9,  4,  2,  3,  2,  2,  9,  7,  6,  6,  6,  6
        |  0,  0,  9,  0,  0,  0,  4,  0,  0,  0,  2,  0,  0,  3,  0,  0,  7,  6,  9,  8,  8,  0,  7,  3,  6,  0,  5,  0, 10,  0,  0,  4,  0,  6,  5,  3,  0,  9,  0,  0,  2,  0,  0,  6,  0,  8,  5,  0
        | 10,  8,  0,  7,  6,  5,  0,  6,  6,  8,  0,  6,  6,  0,  2,  7,  0,  0,  0,  0,  0,  9,  0,  0,  0,  3,  0,  8,  0,  2,  5,  0,  5,  0,  0,  0,  5,  0,  4,  8,  0,  6,  3,  0,  2,  0,  0,  3 |];
